<number of tasks>
100

<cycle time>
1000

<order strength>
0.896


<task times>
1 475
2 461
3 588
4 561
5 528
6 532
7 686
8 681
9 532
10 554
11 408
12 540
13 525
14 524
15 657
16 510
17 500
18 481
19 351
20 520
21 315
22 501
23 476
24 416
25 294
26 659
27 585
28 339
29 388
30 456
31 637
32 400
33 275
34 558
35 490
36 558
37 495
38 311
39 655
40 480
41 403
42 458
43 490
44 371
45 498
46 207
47 596
48 431
49 533
50 726
51 572
52 483
53 548
54 332
55 585
56 584
57 498
58 306
59 401
60 590
61 603
62 605
63 641
64 670
65 371
66 768
67 386
68 657
69 551
70 596
71 580
72 588
73 398
74 380
75 578
76 628
77 533
78 569
79 355
80 479
81 673
82 381
83 514
84 479
85 569
86 205
87 444
88 407
89 464
90 593
91 471
92 489
93 352
94 507
95 683
96 542
97 440
98 425
99 385
100 349

<precedence relations>
1,3
1,4
1,5
1,6
1,7
2,3
2,4
2,5
2,6
2,7
3,8
3,9
3,10
3,11
4,8
4,9
4,10
4,11
5,8
5,9
5,10
5,11
6,8
6,9
6,10
6,11
7,8
7,9
7,10
7,11
8,12
8,13
8,14
9,12
9,13
9,14
10,12
10,13
10,14
11,12
11,13
11,14
12,15
12,16
12,17
12,18
12,19
13,15
13,16
13,17
13,18
13,19
14,15
14,16
14,17
14,18
14,19
15,20
15,21
15,22
15,23
15,24
16,20
16,21
16,22
16,23
16,24
17,20
17,21
17,22
17,23
17,24
18,20
18,21
19,20
19,22
19,24
20,25
20,26
20,27
21,25
21,26
21,27
22,25
22,26
23,25
23,26
23,27
24,25
24,26
24,27
25,28
25,29
25,30
26,28
26,29
26,30
27,29
27,30
28,31
28,32
28,33
29,31
29,32
29,33
30,31
30,32
30,33
31,34
31,35
31,36
32,34
32,35
32,36
33,35
33,36
34,39
34,40
35,37
35,38
35,40
36,37
36,38
36,39
37,42
38,41
38,46
39,57
40,41
41,43
41,44
41,45
42,43
42,44
42,45
42,46
43,47
43,48
43,49
44,47
44,48
44,49
45,47
45,48
46,47
46,58
47,50
47,60
48,50
48,51
48,52
48,53
48,54
49,52
49,58
49,59
50,59
50,61
51,55
51,58
52,57
53,55
53,56
53,57
53,59
54,56
54,58
54,59
55,60
55,61
56,60
56,61
57,60
57,61
58,60
58,61
59,82
59,94
59,95
60,62
60,63
60,64
60,65
61,62
61,63
61,64
61,65
62,66
62,68
62,69
63,70
64,66
65,67
65,69
65,77
66,71
66,72
67,74
67,89
69,72
70,71
70,72
71,73
71,74
72,74
72,75
72,90
73,76
73,77
74,81
74,92
75,76
75,78
75,89
76,80
76,82
77,79
78,81
78,86
78,100
79,84
79,91
80,85
82,83
82,86
82,100
83,88
84,89
84,90
85,87
85,94
86,93
87,91
87,92
88,97
88,98
89,93
89,94
91,97
92,95
94,96
95,99
96,98
99,100

<end>
